w = 30;

n = 28;

r2 = array1d(1..2, [5, 7]);

r3 = array1d(1..2, [5, 14]);

r4 = array1d(1..2, [8, 14]);

r5 = array1d(1..2, [8, 4]);

r6 = array1d(1..2, [13, 21]);

r7 = array1d(1..2, [11, 7]);

r8 = array1d(1..2, [11, 14]);

r9 = array1d(1..2, [5, 14]);

r10 = array1d(1..2, [5, 4]);

r11 = array1d(1..2, [3, 18]);

r12 = array1d(1..2, [3, 21]);

r13 = array1d(1..2, [11, 17]);

r14 = array1d(1..2, [11, 4]);

r15 = array1d(1..2, [4, 7]);

r16 = array1d(1..2, [4, 5]);

r17 = array1d(1..2, [7, 6]);

r18 = array1d(1..2, [5, 18]);

r19 = array1d(1..2, [5, 3]);

r20 = array1d(1..2, [3, 7]);

r21 = array1d(1..2, [3, 5]);

r22 = array1d(1..2, [4, 18]);

r23 = array1d(1..2, [4, 3]);

r24 = array1d(1..2, [2, 12]);

r25 = array1d(1..2, [2, 6]);

r26 = array1d(1..2, [5, 18]);

r27 = array1d(1..2, [5, 21]);

r28 = array1d(1..2, [3, 17]);

r29 = array1d(1..2, [3, 4]);

